letting n =  10
letting blocks =  [[1, 1], [1, 7], [1, 9], [1, 10], [2, 1], [2, 3], [2, 8], [2, 9], [2, 10], [3, 4], [3, 5], [3, 6], [3, 8], [4, 1], [4, 2], [4, 4], [4, 10], [5, 2], [5, 6], [5, 7], [5, 8], [5, 9], [6, 5], [6, 6], [6, 7], [6, 8], [6, 9], [6, 10], [7, 1], [7, 4], [7, 6], [7, 9], [8, 3], [8, 4], [8, 5], [8, 6], [8, 7], [8, 10], [9, 1], [9, 3], [9, 5], [9, 6], [9, 7], [9, 8], [10, 1], [10, 2], [10, 3], [10, 5], [10, 9], [10, 10]]
